22 4
44 78 59 65 65 26 49 68 100 82 44 67 62 31 62 80 80 51 91 26 67 27
46 93 57 73 78 32 56 56 107 73 52 80 56 24 59 86 83 40 70 34 76 12
64 88 59 74 68 16 41 85 83 72 40 77 49 36 64 92 77 60 69 23 68 27
70 91 81 66 71 30 45 64 91 83 64 67 42 31 71 91 68 53 86 45 70 17
